120
150
47
47
56
48
56
46
47
57
46
50
50
50
52
55
49
51
54
56
50
40
49
47
47
44
41
45
54
56
58
52
51
55
52
52
48
55
40
59
44
40
47
46
45
59
58
46
50
47
53
60
45
49
48
53
60
60
54
54
45
42
50
40
52
48
50
60
47
56
49
47
55
53
48
49
50
46
50
50
47
60
50
48
52
43
50
56
40
44
59
45
56
47
50
47
60
60
47
49
46
43
40
52
52
49
52
46
60
43
51
47
59
60
59
59
40
40
56
51
47
47
